
Gurobi 9.1.2 (win64, Java) logging started Thu Nov 11 17:55:30 2021

Academic license - for non-commercial use only - expires 2022-10-30
Gurobi Optimizer version 9.1.2 build v9.1.2rc0 (win64)
Thread count: 6 physical cores, 12 logical processors, using up to 12 threads
Optimize a model with 30 rows, 200 columns and 400 nonzeros
Model fingerprint: 0x6a4d8ca7
Variable types: 0 continuous, 200 integer (200 binary)
Coefficient statistics:
  Matrix range     [1e+00, 1e+03]
  Objective range  [1e+01, 9e+02]
  Bounds range     [1e+00, 1e+00]
  RHS range        [1e+00, 1e+03]
Found heuristic solution: objective 5270.0000000
Presolve removed 4 rows and 105 columns
Presolve time: 0.00s
Presolved: 26 rows, 95 columns, 189 nonzeros
Variable types: 0 continuous, 95 integer (95 binary)
Presolved: 26 rows, 95 columns, 189 nonzeros


Root relaxation: objective 6.664500e+03, 33 iterations, 0.00 seconds

    Nodes    |    Current Node    |     Objective Bounds      |     Work
 Expl Unexpl |  Obj  Depth IntInf | Incumbent    BestBd   Gap | It/Node Time

     0     0 6664.49985    0    8 5270.00000 6664.49985  26.5%     -    0s
H    0     0                    6541.0000000 6664.49985  1.89%     -    0s
H    0     0                    6590.0000000 6663.28064  1.11%     -    0s
     0     0 6632.06778    0    6 6590.00000 6632.06778  0.64%     -    0s
     0     0 6619.49024    0    8 6590.00000 6619.49024  0.45%     -    0s
     0     0 6619.49024    0    3 6590.00000 6619.49024  0.45%     -    0s
     0     0 6596.33490    0    8 6590.00000 6596.33490  0.10%     -    0s

Cutting planes:
  Gomory: 1
  Cover: 2
  Clique: 1
  MIR: 2
  StrongCG: 2

Explored 1 nodes (109 simplex iterations) in 0.02 seconds
Thread count was 12 (of 12 available processors)

Solution count 3: 6590 6541 5270 

Optimal solution found (tolerance 1.00e-12)
Best objective 6.590000000000e+03, best bound 6.590000000000e+03, gap 0.0000%
